ALGO = Normal
EDIFF = 0.0001
ENCUT = 520
IBRION = -1
ICHARG = 11
ISIF = 3
ISMEAR = 0
ISPIN = 1
ISTART = 1
ISYM = 0
KPOINT_BSE = -1
LAECHG = False
LCHARG = False
LORBIT = 11
LREAL = Auto
LVHAR = True
LWAVE = False
NBANDS = 39
NEDOS = 601
NELM = 100
NSW = 0
PREC = Accurate
SIGMA = 0.001
